networks/zoo_28_48/standard/zoo_28_48.sol
<?xml version = "1.0" encoding="UTF-8" standalone="yes"?>
<CPLEXSolution version="1.2">
 <header
   problemName="networks/zoo_28_48/zoo_28_48.lp"
   solutionName="incumbent"
   solutionIndex="-1"
   objectiveValue="11"
   solutionTypeValue="3"
   solutionTypeString="primal"
   solutionStatusValue="101"
   solutionStatusString="integer optimal solution"
   solutionMethodString="mip"
   primalFeasible="1"
   dualFeasible="1"
   MIPNodes="0"
   MIPIterations="343"
   writeLevel="3"/>
 <quality
   epInt="1.0000000000000001e-05"
   epRHS="9.9999999999999995e-07"
   maxIntInfeas="0"
   maxPrimalInfeas="0"
   maxX="4"
   maxSlack="10"/>
 <variables>
  <variable name="Y(25,7)" index="509" value="1"/>
  <variable name="Y(28,11)" index="576" value="1"/>
  <variable name="Y(29,12)" index="598" value="1"/>
  <variable name="Y(30,5)" index="613" value="1"/>
  <variable name="Y(32,4)" index="654" value="1"/>
  <variable name="Y(35,8)" index="720" value="1"/>
  <variable name="Y(36,3)" index="737" value="1"/>
  <variable name="Y(41,4)" index="843" value="1"/>
  <variable name="Y(42,1)" index="861" value="1"/>
  <variable name="Y(43,3)" index="884" value="1"/>
  <variable name="Y(48,9)" index="994" value="1"/>
  <variable name="X(1,4,42)" index="1049" value="1"/>
  <variable name="X(1,7,35)" index="1090" value="1"/>
  <variable name="X(1,9,48)" index="1151" value="1"/>
  <variable name="X(1,16,28)" index="1179" value="1"/>
  <variable name="X(2,5,30)" index="1229" value="1"/>
  <variable name="X(2,8,25)" index="1272" value="1"/>
  <variable name="X(3,4,28)" index="1323" value="1"/>
  <variable name="X(3,5,43)" index="1386" value="1"/>
  <variable name="X(3,19,36)" index="1427" value="1"/>
  <variable name="X(4,1,28)" index="1467" value="1"/>
  <variable name="X(4,3,43)" index="1530" value="1"/>
  <variable name="X(4,9,41)" index="1576" value="1"/>
  <variable name="X(4,20,32)" index="1615" value="1"/>
  <variable name="X(5,2,25)" index="1656" value="1"/>
  <variable name="X(5,3,36)" index="1715" value="1"/>
  <variable name="X(5,12,29)" index="1756" value="1"/>
  <variable name="X(5,21,30)" index="1805" value="1"/>
  <variable name="X(7,8,35)" index="1858" value="1"/>
  <variable name="X(7,23,25)" index="1896" value="1"/>
  <variable name="X(8,2,30)" index="1949" value="1"/>
  <variable name="X(8,7,25)" index="1992" value="1"/>
  <variable name="X(8,24,35)" index="2050" value="1"/>
  <variable name="X(9,1,35)" index="2098" value="1"/>
  <variable name="X(9,4,32)" index="2143" value="1"/>
  <variable name="X(9,25,48)" index="2207" value="1"/>
  <variable name="X(10,5,36)" index="2243" value="1"/>
  <variable name="X(11,16,42)" index="2297" value="1"/>
  <variable name="X(11,27,28)" index="2331" value="1"/>
  <variable name="X(12,28,29)" index="2380" value="1"/>
  <variable name="X(13,4,43)" index="2442" value="1"/>
  <variable name="X(16,1,42)" index="2489" value="1"/>
  <variable name="X(16,11,28)" index="2523" value="1"/>
  <variable name="C(25,2)" index="2614" value="1"/>
  <variable name="C(25,8)" index="2615" value="2"/>
  <variable name="C(25,7)" index="2616" value="3"/>
  <variable name="C(28,4)" index="2626" value="1"/>
  <variable name="C(28,1)" index="2627" value="2"/>
  <variable name="C(28,16)" index="2628" value="3"/>
  <variable name="C(28,11)" index="2629" value="4"/>
  <variable name="C(29,12)" index="2631" value="1"/>
  <variable name="C(30,2)" index="2634" value="1"/>
  <variable name="C(30,5)" index="2635" value="2"/>
  <variable name="C(32,4)" index="2640" value="1"/>
  <variable name="C(35,1)" index="2649" value="1"/>
  <variable name="C(35,7)" index="2650" value="2"/>
  <variable name="C(35,8)" index="2651" value="3"/>
  <variable name="C(36,5)" index="2653" value="1"/>
  <variable name="C(36,3)" index="2654" value="2"/>
  <variable name="C(42,11)" index="2675" value="2"/>
  <variable name="C(42,16)" index="2676" value="3"/>
  <variable name="C(42,1)" index="2677" value="4"/>
  <variable name="C(43,4)" index="2682" value="1"/>
  <variable name="C(43,3)" index="2683" value="2"/>
  <variable name="C(48,9)" index="2703" value="1"/>
 </variables>
</CPLEXSolution>
